30
5
971922
0
0
6 41 5 3 63
1
0
3 49 5 2 42
2
0
5 38 9 3 50
3
0
6 45 8 2 43
4
0
9 45 7 3 33
5
0
3 50 9 3 42
6
0
8 33 7 2 68
7
0
5 43 8 5 36
8
0
5 31 8 2 62
9
0
10 48 6 2 28
10
0
8 37 7 5 34
11
0
4 41 6 4 48
12
0
6 26 8 5 34
13
0
5 44 7 2 67
14
0
5 40 11 2 60
15
0
4 42 13 3 34
16
0
6 49 8 3 46
17
0
6 55 9 4 36
18
0
4 45 5 1 42
19
0
7 30 6 3 58
20
0
5 34 7 3 54
21
0
6 39 5 3 44
22
0
5 59 9 2 35
23
0
4 28 11 3 34
24
0
8 49 12 2 53
25
0
7 46 5 4 40
26
0
5 44 7 3 48
27
0
6 33 4 3 39
28
0
5 29 9 3 27
29
0
4 37 6 2 40
